
Gurobi 13.0.0 (mac64[arm]) logging started Sun Dec  7 08:30:15 2025

Set parameter LogFile to value "/Users/jjung404/PyProjects/qiga/data/steiner-opt/ES10FST/es10fst04_log.txt"
Set parameter OutputFlag to value 1
Gurobi Optimizer version 13.0.0 build v13.0.0rc1 (mac64[arm] - Darwin 24.6.0 24G325)

CPU model: Apple M3
Thread count: 8 physical cores, 8 logical processors, using up to 8 threads

Optimize a model with 68 rows, 60 columns and 176 nonzeros (Min)
Model fingerprint: 0x41932c24
Model has 20 linear objective coefficients
Variable types: 40 continuous, 20 integer (20 binary)
Coefficient statistics:
  Matrix range     [1e+00, 9e+00]
  Objective range  [2e+04, 4e+06]
  Bounds range     [1e+00, 1e+00]
  RHS range        [1e+00, 9e+00]
Found heuristic solution: objective 2.410954e+07
Presolve removed 35 rows and 27 columns
Presolve time: 0.00s
Presolved: 33 rows, 33 columns, 101 nonzeros
Variable types: 21 continuous, 12 integer (12 binary)

Root relaxation: objective 1.557981e+07, 23 iterations, 0.00 seconds (0.00 work units)

    Nodes    |    Current Node    |     Objective Bounds      |     Work
 Expl Unexpl |  Obj  Depth IntInf | Incumbent    BestBd   Gap | It/Node Time

     0     0 1.5580e+07    0   11 2.4110e+07 1.5580e+07  35.4%     -    0s
H    0     0                    2.394718e+07 1.5580e+07  34.9%     -    0s
H    0     0                    2.382887e+07 1.5580e+07  34.6%     -    0s
H    0     0                    2.227814e+07 1.5580e+07  30.1%     -    0s
H    0     0                    2.063818e+07 1.5580e+07  24.5%     -    0s
H    0     0                    2.050677e+07 1.8526e+07  9.66%     -    0s
H    0     0                    2.046112e+07 1.8954e+07  7.37%     -    0s
     0     0 1.8954e+07    0    9 2.0461e+07 1.8954e+07  7.37%     -    0s
     0     0 1.9930e+07    0    8 2.0461e+07 1.9930e+07  2.60%     -    0s
     0     0 1.9930e+07    0    8 2.0461e+07 1.9930e+07  2.60%     -    0s
     0     0 1.9930e+07    0    8 2.0461e+07 1.9930e+07  2.60%     -    0s

Cutting planes:
  Learned: 1
  Gomory: 3
  Cover: 5
  Implied bound: 3
  MIR: 5
  StrongCG: 1
  Flow cover: 5
  Flow path: 2
  Network: 7
  RLT: 1

Explored 1 nodes (47 simplex iterations) in 0.00 seconds (0.00 work units)
Thread count was 8 (of 8 available processors)

Solution count 7: 2.04611e+07 2.05068e+07 2.06382e+07 ... 2.41095e+07

Optimal solution found (tolerance 1.00e-04)
Best objective 2.046111600000e+07, best bound 2.046111600000e+07, gap 0.0000%
